experiments/benchmarks/random/11_10_8.in
32 13
1 -1 8 9 -8 -8 0 0 0 -10 6 3 10
1 -10 9 1 0 0 9 5 3 9 0 0 4
1 0 -5 -9 0 -7 0 -9 8 -7 4 7 4
1 0 -1 0 0 4 4 0 2 0 0 0 0
1 -5 0 0 0 0 0 0 0 -4 -5 6 2
1 -9 10 0 10 4 -4 6 -3 0 0 -9 -8
1 0 -9 0 0 0 0 0 0 -3 6 3 -9
1 0 0 0 0 0 9 0 0 0 0 0 -5
1 0 0 0 0 0 0 9 0 -6 0 0 2
1 0 0 0 0 0 0 0 0 7 1 0 5
1 1 0 0 0 0 0 0 0 0 0 0 8
1 0 1 0 0 0 0 0 0 0 0 0 8
1 0 0 1 0 0 0 0 0 0 0 0 8
1 0 0 0 1 0 0 0 0 0 0 0 8
1 0 0 0 0 1 0 0 0 0 0 0 8
1 0 0 0 0 0 1 0 0 0 0 0 8
1 0 0 0 0 0 0 1 0 0 0 0 8
1 0 0 0 0 0 0 0 1 0 0 0 8
1 0 0 0 0 0 0 0 0 1 0 0 8
1 0 0 0 0 0 0 0 0 0 1 0 8
1 0 0 0 0 0 0 0 0 0 0 1 8
1 -1 0 0 0 0 0 0 0 0 0 0 7
1 0 -1 0 0 0 0 0 0 0 0 0 7
1 0 0 -1 0 0 0 0 0 0 0 0 7
1 0 0 0 -1 0 0 0 0 0 0 0 7
1 0 0 0 0 -1 0 0 0 0 0 0 7
1 0 0 0 0 0 -1 0 0 0 0 0 7
1 0 0 0 0 0 0 -1 0 0 0 0 7
1 0 0 0 0 0 0 0 -1 0 0 0 7
1 0 0 0 0 0 0 0 0 -1 0 0 7
1 0 0 0 0 0 0 0 0 0 -1 0 7
1 0 0 0 0 0 0 0 0 0 0 -1 7
